4 181 45 8 73 74 162 139 19 21 6 11 165 120 32 68 38 145 75 196 124 89 102 13 101 125 129 42 112 5 136 24 114 127 86 154 171 153 30 54 148 80 1 140 72 
41 61 197 95 152 143 71 184 77 56 199 179 177 63 200 103 191 178 193 44 141 90 69 122 27 138 174 58 157 84 187 7 156 64 110 20 2 188 175 155 52 169 126 85 46 53 99 115 163 87 
168 62 36 33 131 116 194 183 164 26 161 88 134 94 144 92 78 57 166 107 9 37 59 49 16 98 176 130 93 198 55 96 22 25 113 111 82 12 109 121 10 50 97 39 
192 34 117 60 118 65 67 23 151 150 43 51 195 132 14 66 146 123 142 133 17 180 70 147 160 185 159 186 106 108 28 76 182 190 
47 18 79 100 91 48 31 40 128 167 15 172 104 170 135 3 105 158 29 149 173 83 189 
119 137 35 81 

